13
0 58 19 53 18 42 26 17 12 36 15 10 14 
58 0 44 21 57 37 35 56 50 46 15 17 51 
19 44 0 34 18 34 31 52 44 56 24 20 24 
53 21 34 0 15 19 17 22 40 58 52 16 37 
18 57 18 15 0 10 23 37 42 34 52 21 48 
42 37 34 19 10 0 32 18 39 37 46 28 19 
26 35 31 17 23 32 0 19 40 11 42 40 40 
17 56 52 22 37 18 19 0 10 41 54 49 53 
12 50 44 40 42 39 40 10 0 33 36 16 26 
36 46 56 58 34 37 11 41 33 0 28 36 56 
15 15 24 52 52 46 42 54 36 28 0 48 45 
10 17 20 16 21 28 40 49 16 36 48 0 19 
14 51 24 37 48 19 40 53 26 56 45 19 0 
